num = 5;
refugees = [|
10, 5, 0, 7, 11|
0, 0, 8, 2, 13|
15, 2, 3, 0, 2|
3, 20, 1, 0, 20|
5, 7, 2, 0, 10|];
languages=[|
0.5, 0.3, 0.8, 0.2, 0.1|
0.8, 0.5, 0.1, 0.7, 1.0|
0.2, 0.2, 0.1, 1.0, 0.8|
0.1, 0.7, 0.9, 0.2, 0.3|
0.2, 0.3, 0.1, 0.2, 0.7|];